GLPSOL--GLPK LP/MIP Solver 5.0
Parameter(s) specified in the command line:
 --lp ../modeles/5_104.lp --log 5_104.log
Reading problem data from '../modeles/5_104.lp'...
541 rows, 1050 columns, 3655 non-zeros
520 integer variables, all of which are binary
1602 lines were read
GLPK Integer Optimizer 5.0
541 rows, 1050 columns, 3655 non-zeros
520 integer variables, all of which are binary
Preprocessing...
510 constraint coefficient(s) were reduced
541 rows, 1045 columns, 3650 non-zeros
520 integer variables, all of which are binary
Scaling...
 A: min|aij| =  1.479e-03  max|aij| =  4.000e+00  ratio =  2.704e+03
GM: min|aij| =  1.387e-01  max|aij| =  7.211e+00  ratio =  5.200e+01
EQ: min|aij| =  1.923e-02  max|aij| =  1.000e+00  ratio =  5.200e+01
2N: min|aij| =  1.562e-02  max|aij| =  1.690e+00  ratio =  1.082e+02
Constructing initial basis...
Size of triangular part is 541
Solving LP relaxation...
GLPK Simplex Optimizer 5.0
541 rows, 1045 columns, 3650 non-zeros
      0: obj =   1.000000000e+01 inf =   2.450e+01 (11)
     74: obj =   2.169165279e-01 inf =   0.000e+00 (0)
*   226: obj =  -2.234113712e+00 inf =   1.995e-15 (0)
OPTIMAL LP SOLUTION FOUND
Integer optimization begins...
Long-step dual simplex will be used
+   226: mip =     not found yet >=              -inf        (1; 0)
+   399: >>>>>  -2.234113712e+00 >=  -2.234113712e+00   0.0% (172; 0)
+   399: mip =  -2.234113712e+00 >=     tree is empty   0.0% (0; 343)
INTEGER OPTIMAL SOLUTION FOUND
Time used:   0.1 secs
Memory used: 1.6 Mb (1648807 bytes)
